benchmarks/VRPTW/TSPTW/solution/n20w140.002.txt.solution
1 11 18 16 17 5 2 8 14 15 19 7 9 20 12 6 13 21 3 10 4 
272
